c LEQ(domain6,domain6) T(domain6) H(domain6) H(domain2) LEQ(domain6,domain2) T(domain2) LEQ(domain2,domain6) T(domain0) LEQ(domain0,domain6) H(domain0) LEQ(domain6,domain0) H(domain4) LEQ(domain6,domain4) LEQ(domain4,domain6) T(domain4) LEQ(domain6,domain9) H(domain9) T(domain9) LEQ(domain9,domain6) LEQ(domain6,domain8) T(domain8) H(domain8) LEQ(domain8,domain6) T(domain7) LEQ(domain6,domain7) H(domain7) LEQ(domain7,domain6) LEQ(domain1,domain6) H(domain1) LEQ(domain6,domain1) T(domain1) T(domain3) H(domain3) LEQ(domain3,domain6) LEQ(domain6,domain3) H(domain5) LEQ(domain5,domain6) LEQ(domain6,domain5) T(domain5) LEQ(domain2,domain2) LEQ(domain2,domain0) LEQ(domain0,domain2) LEQ(domain2,domain4) LEQ(domain4,domain2) LEQ(domain2,domain9) LEQ(domain9,domain2) LEQ(domain2,domain8) LEQ(domain8,domain2) LEQ(domain2,domain7) LEQ(domain7,domain2) LEQ(domain2,domain1) LEQ(domain1,domain2) LEQ(domain3,domain2) LEQ(domain2,domain3) LEQ(domain2,domain5) LEQ(domain5,domain2) LEQ(domain0,domain0) LEQ(domain0,domain4) LEQ(domain4,domain0) LEQ(domain9,domain0) LEQ(domain0,domain9) LEQ(domain0,domain8) LEQ(domain8,domain0) LEQ(domain7,domain0) LEQ(domain0,domain7) LEQ(domain0,domain1) LEQ(domain1,domain0) LEQ(domain3,domain0) LEQ(domain0,domain3) LEQ(domain0,domain5) LEQ(domain5,domain0) LEQ(domain4,domain4) LEQ(domain4,domain9) LEQ(domain9,domain4) LEQ(domain8,domain4) LEQ(domain4,domain8) LEQ(domain4,domain7) LEQ(domain7,domain4) LEQ(domain4,domain1) LEQ(domain1,domain4) LEQ(domain3,domain4) LEQ(domain4,domain3) LEQ(domain5,domain4) LEQ(domain4,domain5) LEQ(domain9,domain9) LEQ(domain8,domain9) LEQ(domain9,domain8) LEQ(domain9,domain7) LEQ(domain7,domain9) LEQ(domain9,domain1) LEQ(domain1,domain9) LEQ(domain9,domain3) LEQ(domain3,domain9) LEQ(domain5,domain9) LEQ(domain9,domain5) LEQ(domain8,domain8) LEQ(domain7,domain8) LEQ(domain8,domain7) LEQ(domain1,domain8) LEQ(domain8,domain1) LEQ(domain8,domain3) LEQ(domain3,domain8) LEQ(domain5,domain8) LEQ(domain8,domain5) LEQ(domain7,domain7) LEQ(domain1,domain7) LEQ(domain7,domain1) LEQ(domain7,domain3) LEQ(domain3,domain7) LEQ(domain5,domain7) LEQ(domain7,domain5) LEQ(domain1,domain1) LEQ(domain1,domain3) LEQ(domain3,domain1) LEQ(domain1,domain5) LEQ(domain5,domain1) LEQ(domain3,domain3) LEQ(domain5,domain3) LEQ(domain3,domain5) LEQ(domain5,domain5)
c 1 2 3 4 5 6 7 8 9 10 11 12 13 14 15 16 17 18 19 20 21 22 23 24 25 26 27 28 29 30 31 32 33 34 35 36 37 38 39 40 41 42 43 44 45 46 47 48 49 50 51 52 53 54 55 56 57 58 59 60 61 62 63 64 65 66 67 68 69 70 71 72 73 74 75 76 77 78 79 80 81 82 83 84 85 86 87 88 89 90 91 92 93 94 95 96 97 98 99 100 101 102 103 104 105 106 107 108 109 110 111 112 113 114 115 116 117 118 119 120
p cnf 120 210
-10 -8 0
-29 -31 0
-4 -6 0
-33 -32 0
-12 -15 0
-36 -39 0
-3 -2 0
-26 -24 0
-22 -21 0
-17 -18 0
10 -10 -57 0
10 -29 -66 0
10 -4 -42 0
10 -33 -69 0
10 -12 -58 0
10 -36 -70 0
10 -3 -9 0
10 -26 -65 0
10 -22 -62 0
10 -17 -61 0
29 -10 -67 0
29 -29 -112 0
29 -4 -52 0
29 -33 -113 0
29 -12 -80 0
29 -36 -115 0
29 -3 -28 0
29 -26 -106 0
29 -22 -99 0
29 -17 -91 0
4 -10 -41 0
4 -29 -51 0
4 -4 -40 0
4 -33 -54 0
4 -12 -43 0
4 -36 -55 0
4 -3 -7 0
4 -26 -49 0
4 -22 -47 0
4 -17 -45 0
33 -10 -68 0
33 -29 -114 0
33 -4 -53 0
33 -33 -117 0
33 -12 -81 0
33 -36 -119 0
33 -3 -34 0
33 -26 -109 0
33 -22 -102 0
33 -17 -93 0
12 -10 -59 0
12 -29 -79 0
12 -4 -44 0
12 -33 -82 0
12 -12 -72 0
12 -36 -84 0
12 -3 -14 0
12 -26 -77 0
12 -22 -76 0
12 -17 -73 0
36 -10 -71 0
36 -29 -116 0
36 -4 -56 0
36 -33 -118 0
36 -12 -83 0
36 -36 -120 0
36 -3 -37 0
36 -26 -110 0
36 -22 -103 0
36 -17 -94 0
3 -10 -11 0
3 -29 -30 0
3 -4 -5 0
3 -33 -35 0
3 -12 -13 0
3 -36 -38 0
3 -3 -1 0
3 -26 -25 0
3 -22 -20 0
3 -17 -16 0
26 -10 -64 0
26 -29 -107 0
26 -4 -50 0
26 -33 -108 0
26 -12 -78 0
26 -36 -111 0
26 -3 -27 0
26 -26 -105 0
26 -22 -97 0
26 -17 -89 0
22 -10 -63 0
22 -29 -100 0
22 -4 -48 0
22 -33 -101 0
22 -12 -75 0
22 -36 -104 0
22 -3 -23 0
22 -26 -98 0
22 -22 -96 0
22 -17 -86 0
17 -10 -60 0
17 -29 -90 0
17 -4 -46 0
17 -33 -92 0
17 -12 -74 0
17 -36 -95 0
17 -3 -19 0
17 -26 -88 0
17 -22 -87 0
17 -17 -85 0
8 -57 -8 0
8 -67 -31 0
8 -41 -6 0
8 -68 -32 0
8 -59 -15 0
8 -71 -39 0
8 -11 -2 0
8 -64 -24 0
8 -63 -21 0
8 -60 -18 0
31 -66 -8 0
31 -112 -31 0
31 -51 -6 0
31 -114 -32 0
31 -79 -15 0
31 -116 -39 0
31 -30 -2 0
31 -107 -24 0
31 -100 -21 0
31 -90 -18 0
6 -42 -8 0
6 -52 -31 0
6 -40 -6 0
6 -53 -32 0
6 -44 -15 0
6 -56 -39 0
6 -5 -2 0
6 -50 -24 0
6 -48 -21 0
6 -46 -18 0
32 -69 -8 0
32 -113 -31 0
32 -54 -6 0
32 -117 -32 0
32 -82 -15 0
32 -118 -39 0
32 -35 -2 0
32 -108 -24 0
32 -101 -21 0
32 -92 -18 0
15 -58 -8 0
15 -80 -31 0
15 -43 -6 0
15 -81 -32 0
15 -72 -15 0
15 -83 -39 0
15 -13 -2 0
15 -78 -24 0
15 -75 -21 0
15 -74 -18 0
39 -70 -8 0
39 -115 -31 0
39 -55 -6 0
39 -119 -32 0
39 -84 -15 0
39 -120 -39 0
39 -38 -2 0
39 -111 -24 0
39 -104 -21 0
39 -95 -18 0
2 -9 -8 0
2 -28 -31 0
2 -7 -6 0
2 -34 -32 0
2 -14 -15 0
2 -37 -39 0
2 -1 -2 0
2 -27 -24 0
2 -23 -21 0
2 -19 -18 0
24 -65 -8 0
24 -106 -31 0
24 -49 -6 0
24 -109 -32 0
24 -77 -15 0
24 -110 -39 0
24 -25 -2 0
24 -105 -24 0
24 -98 -21 0
24 -88 -18 0
21 -62 -8 0
21 -99 -31 0
21 -47 -6 0
21 -102 -32 0
21 -76 -15 0
21 -103 -39 0
21 -20 -2 0
21 -97 -24 0
21 -96 -21 0
21 -87 -18 0
18 -61 -8 0
18 -91 -31 0
18 -45 -6 0
18 -93 -32 0
18 -73 -15 0
18 -94 -39 0
18 -16 -2 0
18 -89 -24 0
18 -86 -21 0
18 -85 -18 0
